(declare-const a Real)
(declare-const b Real)
(declare-const c Real)
(assert (= (* a b c) 1))
(assert (> a 0))
(assert (> b 0))
(assert (> c 0))
(assert (not (<= (+ (* -2767921152 (pow b 4)) (* -2135629824 (pow a 4)) (* (pow (+ 53277696 (* 53277696 (pow b 4))) -3) (pow (+ (* 53277696 a) (* 53277696 (pow b 4))) 4)) (* -5435817984 (pow a (pow 3 -1)) (pow b (/ 11 3))) (* -2717908992 (pow a (/ 10 3)) (pow b (/ 2 3))) (* 319666176 (pow a 2) (pow b 2)) (* 2965327872 b (pow a 3)) (* 9665728512 a (pow b 3))) 0)))
(check-sat)
(get-model)
(exit)